Clp0006I 0  Obj 0 Primal inf 199.99998 (200) Dual inf 9999.999 (10000)
Clp0006I 63  Obj -8911 Primal inf 21038 (199)
Clp0006I 111  Obj -8515 Primal inf 20241 (199)
Clp0006I 163  Obj -8119 Primal inf 23511 (198)
Clp0006I 214  Obj -8020 Primal inf 21287 (198)
Clp0006I 262  Obj -7921 Primal inf 21187 (199)
Clp0006I 310  Obj -7822 Primal inf 21430 (199)
Clp0006I 361  Obj -7822 Primal inf 21549 (198)
Clp0006I 418  Obj -7228 Primal inf 20411 (197)
Clp0006I 474  Obj -6832 Primal inf 20178 (198)
Clp0006I 527  Obj -6634 Primal inf 23645 (198)
Clp0006I 573  Obj -6634 Primal inf 21777 (199)
Clp0006I 626  Obj -6337 Primal inf 21277 (198)
Clp0006I 683  Obj -5743 Primal inf 22587 (197)
Clp0006I 737  Obj -5644 Primal inf 24799 (198)
Clp0006I 794  Obj -5644 Primal inf 22687 (198)
Clp0006I 854  Obj -5644 Primal inf 28150 (199)
Clp0006I 914  Obj -5644 Primal inf 30112 (199)
Clp0006I 971  Obj -5545 Primal inf 19290 (199)
Clp0006I 1033  Obj -5446 Primal inf 29247 (200)
Clp0006I 1096  Obj -5446 Primal inf 22667 (200)
Clp0006I 1159  Obj -5446 Primal inf 26622 (200)
Clp0006I 1222  Obj -5446 Primal inf 31014 (200)
Clp0006I 1277  Obj -5446 Primal inf 23946 (200)
Clp0006I 1335  Obj -5446 Primal inf 38598 (200)
Clp0006I 1388  Obj -5446 Primal inf 23535 (200)
Clp0006I 1439  Obj -5446 Primal inf 27423 (200)
Clp0006I 1496  Obj -5446 Primal inf 24342 (200)
Clp0006I 1546  Obj -5446 Primal inf 30618 (199)
Clp0006I 1602  Obj -5446 Primal inf 24151 (199)
Clp0006I 1659  Obj -5446 Primal inf 23976 (199)
Clp0006I 1726  Obj -5347 Primal inf 23654 (200)
Clp0006I 1784  Obj -5347 Primal inf 22346 (200)
Clp0006I 1838  Obj -5248 Primal inf 25965 (200)
Clp0006I 1899  Obj -5248 Primal inf 29059 (199)
Clp0006I 1953  Obj -5248 Primal inf 28041 (199)
Clp0006I 2004  Obj -4951 Primal inf 23437 (199)
Clp0006I 2054  Obj -4951 Primal inf 22012 (199)
Clp0006I 2113  Obj -4951 Primal inf 26238 (199)
Clp0006I 2170  Obj -4951 Primal inf 27142 (199)
Clp0006I 2222  Obj -4951 Primal inf 28115 (200)
Clp0006I 2283  Obj -4951 Primal inf 26829 (200)
Clp0006I 2340  Obj -4654 Primal inf 20320 (200)
Clp0006I 2398  Obj -3763 Primal inf 20107 (200)
Clp0006I 2452  Obj -3763 Primal inf 32133 (200)
Clp0006I 2515  Obj -3763 Primal inf 29276 (199)
Clp0006I 2570  Obj -3763 Primal inf 29243 (200)
Clp0006I 2624  Obj -3763 Primal inf 36828 (200)
Clp0006I 2683  Obj -3763 Primal inf 33581 (200)
Clp0006I 2735  Obj -3763 Primal inf 25605 (200)
Clp0006I 2790  Obj -3763 Primal inf 30220 (200)
Clp0006I 2846  Obj -3763 Primal inf 28058 (199)
Clp0006I 2902  Obj -3763 Primal inf 32961 (200)
Clp0006I 2958  Obj -3763 Primal inf 24075 (200)
Clp0006I 3007  Obj -3763 Primal inf 31258 (200)
Clp0006I 3072  Obj -3763 Primal inf 22897 (200)
Clp0006I 3132  Obj -3763 Primal inf 30927 (199)
Clp0006I 3190  Obj -3763 Primal inf 23475 (199)
Clp0006I 3239  Obj -3763 Primal inf 28069 (200)
Clp0006I 3295  Obj -3763 Primal inf 33195 (200)
Clp0006I 3355  Obj -3763 Primal inf 29814 (200)
Clp0006I 3406  Obj -3763 Primal inf 42243 (200)
Clp0006I 3453  Obj -3763 Primal inf 50123 (200)
Clp0006I 3511  Obj -3762.9999 Primal inf 57980 (199)
Clp0006I 3574  Obj -3762.9998 Primal inf 48153 (199)
Clp0006I 3639  Obj -3762.9997 Primal inf 51972 (199)
Clp0006I 3696  Obj -3762.9997 Primal inf 44387 (199)
Clp0006I 3755  Obj -3762.9997 Primal inf 35847 (199)
Clp0006I 3819  Obj -3762.9997 Primal inf 43819 (198)
Clp0006I 3871  Obj -3762.9997 Primal inf 41123 (198)
Clp0006I 3922  Obj -3762.9997 Primal inf 39791 (199)
Clp0006I 3978  Obj -3762.9998 Primal inf 37959 (199)
Clp0006I 4037  Obj -3762.9998 Primal inf 51778 (200)
Clp0006I 4088  Obj -3762.9998 Primal inf 49675 (200)
Clp0006I 4139  Obj -3762.9998 Primal inf 70440 (200)
Clp0006I 4201  Obj -3762.9998 Primal inf 36024 (200)
Clp0006I 4259  Obj -3762.9998 Primal inf 38872 (200)
Clp0006I 4314  Obj -3762.9998 Primal inf 36924 (200)
Clp0006I 4368  Obj -3762.9998 Primal inf 41006 (199)
Clp0006I 4420  Obj -3762.9998 Primal inf 40754 (200)
Clp0006I 4472  Obj -3762.9998 Primal inf 39861 (200)
Clp0006I 4528  Obj -3762.9998 Primal inf 47481 (199)
Clp0006I 4577  Obj -3762.9998 Primal inf 46578 (200)
Clp0006I 4637  Obj -3762.9998 Primal inf 37939 (200)
Clp0006I 4692  Obj -3762.9998 Primal inf 34785 (200)
Clp0006I 4752  Obj -3762.9998 Primal inf 28765 (200)
Clp0006I 4811  Obj -3762.9998 Primal inf 37174 (199)
Clp0006I 4860  Obj -3762.9998 Primal inf 37815 (199)
Clp0006I 4918  Obj -1287.9997 Primal inf 31669 (199)
Clp0006I 4967  Obj -1287.9997 Primal inf 29461 (200)
Clp0006I 5031  Obj -1287.9997 Primal inf 38181 (200)
Clp0006I 5096  Obj -1287.9997 Primal inf 27177 (200)
Clp0006I 5151  Obj -1287.9997 Primal inf 20768 (200)
Clp0006I 5212  Obj -1287.9997 Primal inf 28900 (200)
Clp0006I 5287  Obj -1287.9997 Primal inf 23094 (200)
Clp0006I 5363  Obj -1287.9997 Primal inf 46628 (199)
Clp0006I 5419  Obj -1287.9997 Primal inf 36009 (200)
Clp0006I 5477  Obj -1287.9998 Primal inf 27708 (200)
Clp0006I 5537  Obj -1287.9998 Primal inf 39803 (200)
Clp0006I 5592  Obj -1287.9998 Primal inf 21827 (200)
Clp0006I 5666  Obj -1287.9998 Primal inf 23314 (200)
Clp0006I 5728  Obj -1287.9998 Primal inf 23473 (200)
Clp0006I 5794  Obj -1287.9998 Primal inf 33045 (200)
Clp0006I 5858  Obj -1287.9998 Primal inf 30082 (200)
Clp0006I 5920  Obj -1287.9998 Primal inf 30288 (199)
Clp0006I 5980  Obj -1287.9998 Primal inf 29988 (200)
Clp0006I 6039  Obj -1287.9998 Primal inf 26164 (200)
Clp0006I 6097  Obj -1287.9998 Primal inf 35164 (200)
Clp0006I 6141  Obj -1287.9998 Primal inf 36862 (200)
Clp0006I 6196  Obj -1287.9998 Primal inf 32658 (200)
Clp0006I 6262  Obj -1287.9998 Primal inf 28802 (200)
Clp0006I 6332  Obj -1287.9998 Primal inf 24292 (200)
Clp0006I 6407  Obj -1287.9998 Primal inf 22243 (199)
Clp0006I 6462  Obj -1287.9998 Primal inf 19903 (199)
Clp0006I 6540  Obj -1287.9998 Primal inf 21546 (198)
Clp0006I 6608  Obj -495.9998 Primal inf 21344 (197)
Clp0006I 6672  Obj -495.99973 Primal inf 22156 (198)
Clp0006I 6740  Obj -495.99974 Primal inf 24854 (197)
Clp0006I 6798  Obj -495.99974 Primal inf 23763 (198)
Clp0006I 6867  Obj -495.99974 Primal inf 31611 (200)
Clp0006I 6931  Obj -495.99974 Primal inf 29583 (199)
Clp0006I 6985  Obj -495.99975 Primal inf 30675 (198)
Clp0006I 7044  Obj -495.99975 Primal inf 22082 (198)
Clp0006I 7107  Obj -396.99974 Primal inf 19935 (199)
Clp0006I 7177  Obj -396.99975 Primal inf 30437 (199)
Clp0006I 7239  Obj -396.99975 Primal inf 35137 (198)
Clp0006I 7293  Obj -396.99975 Primal inf 28370 (200)
Clp0006I 7358  Obj -396.99975 Primal inf 25545 (199)
Clp0006I 7424  Obj -396.99975 Primal inf 33371 (199)
Clp0006I 7484  Obj -396.99976 Primal inf 26048 (199)
Clp0006I 7547  Obj -396.99976 Primal inf 32035 (200)
Clp0006I 7609  Obj -396.99976 Primal inf 29782 (199)
Clp0006I 7670  Obj -396.99976 Primal inf 23237 (199)
Clp0006I 7743  Obj -396.99977 Primal inf 21705 (200)
Clp0006I 7812  Obj -396.99977 Primal inf 19552 (200)
Clp0006I 7884  Obj -396.99977 Primal inf 18174 (199)
Clp0006I 7941  Obj -396.99978 Primal inf 28426 (196)
Clp0006I 8002  Obj -396.99978 Primal inf 24609 (197)
Clp0006I 8070  Obj -396.99978 Primal inf 31739 (196)
Clp0006I 8137  Obj -396.99978 Primal inf 25211 (195)
Clp0006I 8197  Obj -396.99979 Primal inf 29016 (196)
Clp0006I 8255  Obj -396.99979 Primal inf 22524 (197)
Clp0006I 8327  Obj -396.99979 Primal inf 20386 (198)
Clp0006I 8388  Obj -396.99979 Primal inf 31044 (199)
Clp0006I 8447  Obj -396.99979 Primal inf 21468 (196)
Clp0006I 8502  Obj -396.9998 Primal inf 20365 (197)
Clp0006I 8555  Obj -396.9998 Primal inf 20832 (199)
Clp0006I 8618  Obj -396.9998 Primal inf 27866 (199)
Clp0006I 8671  Obj -396.9998 Primal inf 24293 (200)
Clp0006I 8732  Obj -396.99981 Primal inf 21947 (200)
Clp0006I 8792  Obj -396.99981 Primal inf 28393 (198)
Clp0006I 8850  Obj -99.999782 Primal inf 22337 (197)
Clp0006I 8911  Obj -99.999783 Primal inf 17455 (194)
Clp0006I 8971  Obj -99.999785 Primal inf 21068 (196)
Clp0006I 9032  Obj -99.999769 Primal inf 14517 (197)
Clp0006I 9095  Obj -99.999771 Primal inf 26308 (198)
Clp0006I 9152  Obj -99.999771 Primal inf 34332 (198)
Clp0006I 9201  Obj -99.999772 Primal inf 17945 (198)
Clp0006I 9267  Obj -99.999774 Primal inf 21047 (199)
Clp0006I 9320  Obj -99.999775 Primal inf 23321 (197)
Clp0006I 9386  Obj -99.999777 Primal inf 28389 (199)
Clp0006I 9437  Obj -99.999778 Primal inf 36043 (198)
Clp0006I 9488  Obj -99.999779 Primal inf 25758 (197)
Clp0006I 9541  Obj -99.99978 Primal inf 23807 (199)
Clp0006I 9595  Obj -99.999781 Primal inf 24133 (199)
Clp0006I 9650  Obj -99.999784 Primal inf 17441 (199)
Clp0006I 9711  Obj -99.999786 Primal inf 22217 (198)
Clp0006I 9770  Obj -99.999787 Primal inf 23281 (198)
Clp0006I 9825  Obj -99.99979 Primal inf 22545 (197)
Clp0006I 9885  Obj -99.999793 Primal inf 18130 (197)
Clp0006I 9946  Obj -99.999787 Primal inf 14153 (198)
Clp0006I 10012  Obj -99.999781 Primal inf 14371 (198)
Clp0006I 10073  Obj -99.999784 Primal inf 21456 (198)
Clp0006I 10142  Obj -99.99977 Primal inf 21888 (198)
Clp0006I 10210  Obj -99.999765 Primal inf 19636 (199)
Clp0006I 10270  Obj -99.999768 Primal inf 18356 (198)
Clp0006I 10327  Obj -99.999771 Primal inf 13801 (198)
Clp0006I 10394  Obj -99.999773 Primal inf 26883 (198)
Clp0006I 10455  Obj -99.999776 Primal inf 21030 (198)
Clp0006I 10519  Obj -99.999778 Primal inf 17659 (199)
Clp0006I 10592  Obj -99.999783 Primal inf 16111 (198)
Clp0006I 10662  Obj -99.999785 Primal inf 18356 (199)
Clp0006I 10725  Obj -99.999788 Primal inf 14642 (199)
Clp0006I 10789  Obj -99.999792 Primal inf 22564 (198)
Clp0006I 10844  Obj -99.999795 Primal inf 14296 (199)
Clp0006I 10903  Obj -99.999796 Primal inf 20729 (196)
Clp0006I 10963  Obj -99.999798 Primal inf 24424 (196)
Clp0006I 11020  Obj -99.999799 Primal inf 26569 (198)
Clp0006I 11078  Obj -99.999801 Primal inf 22452 (198)
Clp0006I 11137  Obj -99.999805 Primal inf 28493 (197)
Clp0006I 11196  Obj -99.999806 Primal inf 25960 (198)
Clp0006I 11256  Obj -99.999808 Primal inf 19783 (198)
Clp0006I 11317  Obj -99.99981 Primal inf 21318 (198)
Clp0006I 11370  Obj -99.999811 Primal inf 33020 (199)
Clp0006I 11425  Obj -99.999812 Primal inf 36951 (199)
Clp0006I 11480  Obj -99.999814 Primal inf 17281 (198)
Clp0006I 11537  Obj -99.999815 Primal inf 18260 (196)
Clp0006I 11598  Obj -99.999817 Primal inf 12818 (198)
Clp0006I 11672  Obj -99.99982 Primal inf 13653 (198)
Clp0006I 11736  Obj -99.999824 Primal inf 10982 (197)
Clp0006I 11812  Obj -99.999819 Primal inf 13984 (197)
Clp0006I 11865  Obj -99.99981 Primal inf 14666 (198)
Clp0006I 11908  Obj -99.999811 Primal inf 23015 (199)
Clp0006I 11973  Obj -99.999812 Primal inf 14722 (199)
Clp0006I 12034  Obj -99.999813 Primal inf 20327 (199)
Clp0006I 12102  Obj -99.999815 Primal inf 25486 (199)
Clp0006I 12170  Obj -99.999817 Primal inf 21169 (199)
Clp0006I 12239  Obj -99.999819 Primal inf 15403 (199)
Clp0006I 12304  Obj -99.99982 Primal inf 22535 (195)
Clp0006I 12357  Obj -99.999821 Primal inf 18806 (193)
Clp0006I 12415  Obj -99.999823 Primal inf 21038 (196)
Clp0006I 12473  Obj -99.999826 Primal inf 14515 (196)
Clp0006I 12538  Obj -99.999827 Primal inf 24915 (196)
Clp0006I 12593  Obj -99.999829 Primal inf 19971 (196)
Clp0006I 12651  Obj -99.99983 Primal inf 17288 (198)
Clp0006I 12705  Obj -99.999834 Primal inf 11806 (197)
Clp0006I 12772  Obj -99.999837 Primal inf 19296 (198)
Clp0006I 12826  Obj -99.999837 Primal inf 18688 (198)
Clp0006I 12881  Obj -99.99984 Primal inf 19652 (198)
Clp0006I 12937  Obj -99.999841 Primal inf 14761 (199)
Clp0006I 13010  Obj -99.999843 Primal inf 15842 (197)
Clp0006I 13065  Obj -99.999845 Primal inf 9999 (195)
Clp0006I 13142  Obj -99.999839 Primal inf 11396 (197)
Clp0006I 13215  Obj -99.999841 Primal inf 12966 (197)
Clp0006I 13272  Obj -99.999842 Primal inf 12508 (197)
Clp0006I 13345  Obj -99.999839 Primal inf 10060 (197)
Clp0006I 13409  Obj -99.999841 Primal inf 14861 (198)
Clp0006I 13472  Obj -99.999842 Primal inf 12578 (198)
Clp0006I 13530  Obj -99.999843 Primal inf 12118 (195)
Clp0006I 13584  Obj -99.999844 Primal inf 25414 (198)
Clp0006I 13642  Obj -99.999846 Primal inf 17338 (197)
Clp0006I 13702  Obj -99.999848 Primal inf 18116 (197)
Clp0006I 13761  Obj -99.999851 Primal inf 17419 (197)
Clp0006I 13825  Obj -99.999853 Primal inf 31617 (196)
Clp0006I 13876  Obj -99.999854 Primal inf 15478 (196)
Clp0006I 13941  Obj -99.999856 Primal inf 16122 (196)
Clp0006I 13992  Obj -99.999857 Primal inf 23948 (197)
Clp0006I 14040  Obj -99.999859 Primal inf 19086 (198)
Clp0006I 14097  Obj -99.99986 Primal inf 20586 (198)
Clp0006I 14157  Obj -99.999862 Primal inf 17306 (197)
Clp0006I 14215  Obj -99.999864 Primal inf 15900 (195)
Clp0006I 14275  Obj -99.999867 Primal inf 12775 (196)
Clp0006I 14334  Obj -99.999869 Primal inf 10048 (198)
Clp0006I 14412  Obj -99.999858 Primal inf 11185 (197)
Clp0006I 14470  Obj -99.999859 Primal inf 10776 (196)
Clp0006I 14528  Obj -99.999852 Primal inf 12628 (197)
Clp0006I 14584  Obj -99.999854 Primal inf 10453 (197)
Clp0006I 14647  Obj -99.999855 Primal inf 12430 (197)
Clp0006I 14711  Obj -99.999859 Primal inf 12654 (198)
Clp0006I 14763  Obj -99.999854 Primal inf 11643 (197)
Clp0006I 14825  Obj -99.999856 Primal inf 11333 (197)
Clp0006I 14892  Obj -99.999858 Primal inf 15161 (197)
Clp0006I 14948  Obj -99.99986 Primal inf 9625 (198)
Clp0006I 15000  Obj -99.999857 Primal inf 9830 (198)
Clp0006I 15066  Obj -99.999859 Primal inf 12879 (198)
Clp0006I 15127  Obj -99.999862 Primal inf 11088 (197)
Clp0006I 15195  Obj -99.999864 Primal inf 9592 (198)
Clp0006I 15256  Obj -99.999867 Primal inf 9783 (197)
Clp0006I 15326  Obj -99.999869 Primal inf 13269 (198)
Clp0006I 15381  Obj -99.999869 Primal inf 13097 (197)
Clp0006I 15443  Obj -99.999871 Primal inf 10443 (198)
Clp0006I 15506  Obj -99.999873 Primal inf 9061 (198)
Clp0006I 15569  Obj -99.999873 Primal inf 14063 (198)
Clp0006I 15623  Obj -99.999874 Primal inf 11563 (197)
Clp0006I 15674  Obj -99.999875 Primal inf 10516 (197)
Clp0006I 15730  Obj -99.999877 Primal inf 15077 (197)
Clp0006I 15789  Obj -99.999878 Primal inf 17028 (197)
Clp0006I 15840  Obj -99.999878 Primal inf 12822 (198)
Clp0006I 15902  Obj -99.99988 Primal inf 11329 (197)
Clp0006I 15963  Obj -99.999881 Primal inf 16689 (199)
Clp0006I 16020  Obj -99.999881 Primal inf 16641 (198)
Clp0006I 16075  Obj -99.999882 Primal inf 20790 (198)
Clp0006I 16136  Obj -99.999883 Primal inf 10971 (197)
Clp0006I 16199  Obj -99.999886 Primal inf 11366 (197)
Clp0006I 16262  Obj -99.999887 Primal inf 13733 (197)
Clp0006I 16317  Obj -99.999888 Primal inf 13668 (198)
Clp0006I 16375  Obj -99.999889 Primal inf 21282 (199)
Clp0006I 16435  Obj -99.99989 Primal inf 24742 (198)
Clp0006I 16482  Obj -99.99989 Primal inf 15580 (197)
Clp0006I 16542  Obj -99.999892 Primal inf 16270 (197)
Clp0006I 16602  Obj -99.999894 Primal inf 14245 (197)
Clp0006I 16655  Obj -99.999896 Primal inf 16054 (196)
Clp0006I 16707  Obj -99.999897 Primal inf 13440 (197)
Clp0006I 16771  Obj -99.999899 Primal inf 10644 (198)
Clp0006I 16835  Obj -99.999901 Primal inf 8272 (198)
Clp0006I 16900  Obj -99.999904 Primal inf 8394 (196)
Clp0006I 16966  Obj -99.999906 Primal inf 7243 (197)
Clp0006I 17023  Obj -99.999907 Primal inf 11742 (196)
Clp0006I 17074  Obj -99.999907 Primal inf 14228 (198)
Clp0006I 17136  Obj -99.999908 Primal inf 22527 (199)
Clp0006I 17194  Obj -99.999909 Primal inf 14436 (199)
Clp0006I 17252  Obj -99.99991 Primal inf 10463 (199)
Clp0006I 17305  Obj -99.999913 Primal inf 7382 (198)
Clp0006I 17359  Obj -99.999914 Primal inf 9538 (199)
Clp0006I 17405  Obj -99.999915 Primal inf 11468 (199)
Clp0006I 17462  Obj -99.999915 Primal inf 10010 (199)
Clp0006I 17523  Obj -99.999916 Primal inf 11427 (199)
Clp0006I 17579  Obj -99.999914 Primal inf 5866 (196)
Clp0006I 17648  Obj -99.999916 Primal inf 7473 (199)
Clp0006I 17714  Obj -99.999915 Primal inf 6025 (198)
Clp0006I 17771  Obj -99.999917 Primal inf 7498 (198)
Clp0006I 17828  Obj -99.999918 Primal inf 6627 (198)
Clp0006I 17875  Obj -99.999919 Primal inf 11215 (199)
Clp0006I 17928  Obj -99.999919 Primal inf 12134 (199)
Clp0006I 17979  Obj -99.999923 Primal inf 5849 (199)
Clp0006I 18038  Obj -99.999925 Primal inf 12163 (198)
Clp0006I 18094  Obj -99.999925 Primal inf 10727 (198)
Clp0006I 18152  Obj -99.999928 Primal inf 5821 (195)
Clp0006I 18231  Obj -99.99993 Primal inf 6419 (195)
Clp0006I 18291  Obj -99.999932 Primal inf 6976 (198)
Clp0006I 18351  Obj -99.999934 Primal inf 7100 (198)
Clp0006I 18403  Obj -99.999936 Primal inf 8780 (198)
Clp0006I 18457  Obj -99.999936 Primal inf 8698 (199)
Clp0006I 18517  Obj -99.999933 Primal inf 8213 (196)
Clp0006I 18581  Obj -99.999933 Primal inf 4927 (198)
Clp0006I 18657  Obj -99.99993 Primal inf 4596 (196)
Clp0006I 18715  Obj -99.999931 Primal inf 5587 (197)
Clp0006I 18770  Obj -99.999932 Primal inf 7842 (199)
Clp0006I 18827  Obj -99.999933 Primal inf 5331 (198)
Clp0006I 18892  Obj -99.999931 Primal inf 6525 (198)
Clp0006I 18955  Obj -99.999934 Primal inf 7621 (196)
Clp0006I 19004  Obj -99.999934 Primal inf 8443 (198)
Clp0006I 19056  Obj -99.999934 Primal inf 15164 (199)
Clp0006I 19118  Obj -99.999935 Primal inf 8200 (199)
Clp0006I 19180  Obj -99.999936 Primal inf 10372 (197)
Clp0006I 19244  Obj -99.999938 Primal inf 6946 (198)
Clp0006I 19299  Obj -99.999938 Primal inf 11418 (199)
Clp0006I 19366  Obj -99.99994 Primal inf 16137 (199)
Clp0006I 19420  Obj -99.99994 Primal inf 10995 (199)
Clp0006I 19479  Obj -99.99994 Primal inf 16219 (199)
Clp0006I 19534  Obj -99.999941 Primal inf 10924 (197)
Clp0006I 19599  Obj -99.999943 Primal inf 8172 (198)
Clp0006I 19658  Obj -99.999944 Primal inf 9453 (197)
Clp0006I 19712  Obj -99.999945 Primal inf 8088 (196)
Clp0006I 19775  Obj -99.999947 Primal inf 6057 (196)
Clp0006I 19846  Obj -99.999949 Primal inf 5554 (195)
Clp0006I 19906  Obj -99.99995 Primal inf 6974 (198)
Clp0006I 19949  Obj -99.999951 Primal inf 6513 (198)
Clp0006I 20018  Obj -99.999953 Primal inf 11489 (198)
Clp0006I 20083  Obj -99.999953 Primal inf 10947 (199)
Clp0006I 20139  Obj -99.999955 Primal inf 12462 (198)
Clp0006I 20196  Obj -99.999956 Primal inf 7477 (196)
Clp0006I 20254  Obj -99.999956 Primal inf 7512 (196)
Clp0006I 20310  Obj -99.999957 Primal inf 5059 (197)
Clp0006I 20354  Obj -99.999958 Primal inf 7727 (196)
Clp0014I Perturbing problem by 0.001% of 1.0000001 - largest nonzero change 1.0499907e-05 ( 0.0010499906%) - largest zero change 0
Clp0006I 20411  Obj -100.01418 Primal inf 6621 (195)
Clp0006I 20484  Obj -100.0058 Primal inf 1640 (160)
Clp0006I 20548  Obj -100.00349 Primal inf 1060 (127)
Clp0006I 20608  Obj -100.00228 Primal inf 560.99999 (106)
Clp0006I 20680  Obj -100.00172 Primal inf 252.99999 (88)
Clp0006I 20744  Obj -100.0013 Primal inf 271.99999 (96)
Clp0006I 20812  Obj -100.00105 Primal inf 153.99999 (67)
Clp0006I 20882  Obj -100.00096 Primal inf 64.999996 (36)
Clp0006I 20940  Obj -100.00092 Primal inf 71.999996 (45)
Clp0006I 20996  Obj -100.00091 Primal inf 46.999996 (35)
Clp0006I 21018  Obj -100.0009
Clp0000I Optimal - objective value -100
Clp0000I Optimal - objective value -100
Node 0 depth 0 unsatisfied 0 sum 0 obj -100 guess -100 branching on -1
Clp0000I Optimal - objective value -100
Cbc0004I Integer solution of -100 found after 0 iterations and 0 nodes (1.80 seconds)
Cbc0001I Search completed - best objective -100, took 0 iterations and 0 nodes (1.80 seconds)
Cbc0035I Maximum depth 0, 0 variables fixed on reduced cost
Clp0000I Optimal - objective value -100
Clp0000I Optimal - objective value -100
x_74 = 1
x_141 = 1
x_272 = 1
x_361 = 1
x_447 = 1
x_525 = 1
x_635 = 1
x_719 = 1
x_862 = 1
x_952 = 1
x_1059 = 1
x_1178 = 1
x_1240 = 1
x_1360 = 1
x_1443 = 1
x_1571 = 1
x_1602 = 1
x_1739 = 1
x_1814 = 1
x_1977 = 1
x_2012 = 1
x_2168 = 1
x_2291 = 1
x_2357 = 1
x_2480 = 1
x_2544 = 1
x_2636 = 1
x_2708 = 1
x_2848 = 1
x_2901 = 1
x_3083 = 1
x_3123 = 1
x_3242 = 1
x_3330 = 1
x_3445 = 1
x_3527 = 1
x_3673 = 1
x_3720 = 1
x_3826 = 1
x_3922 = 1
x_4024 = 1
x_4121 = 1
x_4207 = 1
x_4334 = 1
x_4458 = 1
x_4511 = 1
x_4605 = 1
x_4755 = 1
x_4804 = 1
x_4993 = 1
x_5000 = 1
x_5115 = 1
x_5256 = 1
x_5313 = 1
x_5431 = 1
x_5537 = 1
x_5618 = 1
x_5709 = 1
x_5838 = 1
x_5928 = 1
x_6088 = 1
x_6190 = 1
x_6270 = 1
x_6306 = 1
x_6417 = 1
x_6510 = 1
x_6651 = 1
x_6750 = 1
x_6886 = 1
x_6933 = 1
x_7099 = 1
x_7165 = 1
x_7216 = 1
x_7353 = 1
x_7446 = 1
x_7529 = 1
x_7603 = 1
x_7781 = 1
x_7889 = 1
x_7964 = 1
x_8067 = 1
x_8198 = 1
x_8296 = 1
x_8354 = 1
x_8497 = 1
x_8563 = 1
x_8666 = 1
x_8787 = 1
x_8894 = 1
x_8995 = 1
x_9069 = 1
x_9179 = 1
x_9232 = 1
x_9375 = 1
x_9485 = 1
x_9582 = 1
x_9649 = 1
x_9792 = 1
x_9884 = 1
x_9976 = 1
real 0m1,855s user 0m1,846s sys 0m0,008s
